NAME : XML100_3335_09
DIMENSION : 101
NB_CLUSTERS : 8
CLUSTERING_ALG : KMeans
CLUSTERING_PARAMS : k(7)
CLUSTERS
1 0
2 9 18 20 32 37 42 44 47 55 58 70 74 83
3 3 6 8 11 13 15 27 29 30 31 35 50 56 63 64 71 78 79 85 86 87 90 93 96 99
4 7 16 24 28 34 43 48 49 54 57 61 62 67 76 77 81 91 95
5 2 10 12 52 60 75 88 92
6 14 19 23 26 39 66 72 73 82 89
7 1 4 33 38 40 59 65 68 69 98 100
8 5 17 21 22 25 36 41 45 46 51 53 80 84 94 97
EOF